100
32
13
13
8
11
26
28
14
8
13
9
13
7
24
12
29
9
24
1
24
27
18
2
28
30
29
19
24
19
31
19
28
26
32
32
8
5
19
29
21
27
20
15
26
17
1
22
19
31
26
28
23
8
28
2
25
9
18
27
18
17
23
3
19
32
18
23
13
18
28
29
28
12
24
27
6
24
30
11
2
29
18
8
17
17
30
20
32
5
25
4
26
20
10
22
17
8
1
31
24
17